K1
1.0
4.062577 0.000000 2.345530
1.354192 3.830234 2.345530
0.000000 0.000000 4.691060
K
1
direct
-0.000000 0.000000 0.000000 K
